JulietBench/Juliet_Based_Patch_Bench/FFmpeg/CWE-189-Numeric-Errors/CVE_2013_0855_3920d1387834e2bc334aff9f518f4beb24e470bd/solverallocate_buffers_Snippet_patch1.smt2
; benchmark generated from python API
(set-info :status unknown)
(declare-fun rdi () (_ BitVec 64))
(declare-fun R () (_ BitVec 32))
(assert
 (let ((?x28 ((_ extract 29 0) rdi)))
 (let ((?x29 (concat ?x28 (_ bv0 2))))
 (let (($x73 (= R ?x29)))
 (let ((?x6 ((_ extract 31 0) rdi)))
 (let (($x34 (bvule ?x6 (_ bv536870911 32))))
 (let (($x75 (and $x34 $x73)))
 (let (($x69 (= (_ bv4294967295 32) R)))
 (let (($x60 (bvugt ?x6 (_ bv536870911 32))))
 (let (($x74 (and $x60 $x69)))
 (let (($x76 (or $x74 $x75)))
 (let (($x79 (not $x76)))
 (let (($x78 (and (distinct R ?x29) true)))
 (let (($x80 (and $x78 $x79)))
 (let (($x77 (and $x73 $x76)))
 (let (($x81 (or $x77 $x80)))
 (not $x81)))))))))))))))))
(check-sat)
